<number of tasks>
100

<cycle time>
1000

<order strength>
0.595


<task times>
1 134
2 293
3 30
4 24
5 540
6 438
7 149
8 119
9 531
10 98
11 275
12 118
13 149
14 484
15 159
16 183
17 81
18 88
19 422
20 136
21 307
22 185
23 130
24 124
25 231
26 35
27 51
28 100
29 135
30 37
31 236
32 435
33 431
34 300
35 24
36 357
37 329
38 106
39 39
40 462
41 532
42 487
43 57
44 70
45 46
46 76
47 573
48 104
49 89
50 380
51 75
52 63
53 23
54 508
55 196
56 211
57 461
58 75
59 49
60 99
61 226
62 131
63 228
64 148
65 562
66 149
67 131
68 217
69 82
70 258
71 146
72 188
73 176
74 96
75 252
76 307
77 182
78 90
79 181
80 106
81 125
82 543
83 68
84 175
85 109
86 193
87 511
88 66
89 448
90 213
91 130
92 181
93 543
94 206
95 478
96 522
97 171
98 536
99 118
100 35

<precedence relations>
1,12
2,5
2,6
2,7
2,8
2,9
3,5
3,6
3,7
3,8
3,9
4,5
4,6
4,7
4,8
4,9
5,10
5,12
6,11
6,12
7,12
8,12
9,12
10,13
11,15
12,14
12,16
12,17
12,18
13,24
14,21
15,22
16,19
16,23
16,24
16,25
17,20
17,23
17,24
17,25
18,23
18,24
18,25
19,29
20,30
21,27
22,28
23,26
23,31
24,31
25,55
25,60
25,84
26,32
27,33
28,34
29,35
30,38
31,36
31,37
31,38
31,39
31,40
31,41
32,45
33,46
34,44
35,47
36,43
37,42
37,45
37,46
37,47
37,56
38,45
38,46
38,48
38,62
38,68
39,48
39,49
40,45
40,47
40,62
41,45
41,54
41,60
42,50
43,54
44,52
45,53
45,55
45,84
46,72
46,73
46,84
47,54
47,59
47,60
47,61
47,63
48,51
48,53
48,54
48,84
49,53
49,56
50,60
51,58
52,59
53,57
53,76
53,77
54,72
55,63
55,83
56,59
56,61
56,62
56,79
57,65
58,67
59,64
59,78
60,68
60,72
60,76
61,66
61,68
61,82
62,77
62,78
63,90
64,69
65,70
66,71
67,72
68,73
69,76
70,74
71,75
72,78
72,79
72,91
73,77
73,90
74,82
75,84
76,82
76,88
77,80
77,83
77,89
77,96
78,81
78,89
79,83
79,90
80,86
81,87
82,90
82,91
83,85
83,88
83,95
84,88
84,89
84,95
85,93
86,94
87,94
88,92
89,99
89,100
90,95
90,98
90,99
91,96
92,97
93,98
94,98
94,100
96,99

<end>
